100
128
43
2
3
49
22
3
32
24
28
2
13
28
16
45
14
10
15
1
1
2
41
14
8
10
3
9
24
4
9
8
26
3
2
25
8
13
1
7
13
1
8
10
34
10
33
13
7
26
1
4
3
38
4
9
31
6
51
19
7
12
61
10
34
36
9
8
28
4
37
14
32
43
12
29
38
48
45
20
48
50
12
21
51
15
50
20
2
29
26
64
62
49
61
30
64
62
39
43
37
41